NAME:28_14
TYPE: TSP
DIMENSION: 28
EDGE_WEIGHT_TYPE: EXPLICIT
EDGE_WEIGHT_FORMAT: UPPER_ROW
EDGE_WEIGHT_SECTION
630 630 630 630 630 630 630 630 630 630 630 630 630 0 274 278 278 237 310 260 264 264 268 270 270 274 274 630 630 630 630 630 630 630 630 630 630 630 630 246 0 214 246 237 246 228 228 224 224 222 218 218 214 630 630 630 630 630 630 630 630 630 630 630 242 242 0 242 237 242 228 232 232 236 238 238 242 242 630 630 630 630 630 630 630 630 630 630 242 210 210 0 237 242 228 228 224 224 222 218 218 214 630 630 630 630 630 630 630 630 630 251 315 283 315 0 283 301 305 305 309 311 311 315 315 630 630 630 630 630 630 630 630 210 242 210 242 237 0 228 232 232 236 238 238 242 242 630 630 630 630 630 630 630 260 224 228 228 219 260 0 214 214 218 220 220 224 224 630 630 630 630 630 630 256 220 224 228 219 256 210 0 210 214 216 216 220 220 630 630 630 630 630 256 220 224 232 223 256 214 214 0 214 216 216 220 220 630 630 630 630 252 216 220 232 223 252 214 214 210 0 212 212 216 216 630 630 630 250 214 218 234 225 250 216 216 212 212 0 210 214 214 630 630 250 214 218 238 229 250 220 220 216 216 214 0 214 214 630 246 210 214 238 229 246 220 220 216 216 214 210 0 210 246 210 214 242 233 246 224 224 220 220 218 214 214 0 630 630 630 630 630 630 630 630 630 630 630 630 630 630 630 630 630 630 630 630 630 630 630 630 630 630 630 630 630 630 630 630 630 630 630 630 630 630 630 630 630 630 630 630 630 630 630 630 630 630 630 630 630 630 630 630 630 630 630 630 630 630 630 630 630 630 630 630 630 630 630 630 630 630 630 630 630 630 630 630 630 630 630 630 630 630 630 630 630 630 630 